data/instances/vrp_files/train_0.vrp
NAME : 0
COMMENT : Generated instance No. 0
TYPE : CVRP
DIMENSION : 21
EDGE_WEIGHT_TYPE : EUC_2D
CAPACITY : 30
NODE_COORD_SECTION
 1 122 495
 2 374 950
 3 731 598
 4 156 155
 5 58 866
 6 601 708
 7 20 969
 8 832 212
 9 181 183
 10 304 524
 11 431 291
 12 611 139
 13 292 366
 14 456 785
 15 199 514
 16 592 46
 17 607 170
 18 65 948
 19 965 808
 20 304 97
 21 684 440
DEMAND_SECTION
1 0
2 3
3 1
4 4
5 2
6 8
7 4
8 2
9 6
10 6
11 10
12 4
13 6
14 2
15 10
16 2
17 10
18 4
19 8
20 7
21 9
DEPOT_SECTION
 1
 -1
EOF